12 3 12 3 16 3 16 3 19 3 19 3 16 5 
17 3 17 3 14 3 14 3 11 3 11 3 7 5 
12 3 12 3 16 3 16 3 19 3 19 3 16 5
12 3 12 3 6 3 6 3 7 5 
12 3 12 3 16 3 16 3 19 3 19 3 16 5 
17 3 17 3 14 3 14 3 11 3 11 3 7 5 
12 3 12 3 16 3 16 3 19 3 19 3 16 5
12 3 12 3 6 3 6 3 7 5 
5 5 4 5 2 3 2 3 2 1 4 1 5 1 7 1 9 3 7 3 5 3 4 3 2 3 2 3 2 4 3 1 
4 3 4 3 7 3 7 3 12 3 12 3 16 5 14 3 14 3 12 1 11 1 9 1 11 1 12 3 12 3 12 3